NAME 
ROWS
 N  OBJ
 L  R0      
 L  R1      
 L  R2      
 E  R3      
 E  R4      
 E  R5      
 E  R6      
 E  R7      
 E  R8      
 E  R9      
 E  R10     
 E  R11     
 E  R12     
 E  R13     
 E  R14     
 E  R15     
 E  R16     
 E  R17     
COLUMNS
    MARKER    'MARKER'                 'INTORG'
    I0(9)     OBJ       -13
    I0(9)     R0        -176
    I0(9)     R1        -125
    I0(9)     R2        -160
    I0(9)     R4        7
    I0(9)     R5        17
    I0(9)     R6        5
    I0(9)     R7        4
    I0(9)     R8        17
    I0(9)     R17       1
    I1(9)     OBJ       102
    I1(9)     R0        6
    I1(9)     R1        18
    I1(9)     R2        -118
    I1(9)     R3        6
    I1(9)     R4        -1
    I1(9)     R7        14
    I1(9)     R8        11
    I1(9)     R9        -1
    I1(9)     R17       1
    I2(9)     OBJ       -191
    I2(9)     R0        188
    I2(9)     R1        -28
    I2(9)     R2        9
    I2(9)     R4        12
    I2(9)     R5        15
    I2(9)     R6        4
    I2(9)     R8        19
    I2(9)     R9        15
    I2(9)     R17       1
    I3(9)     OBJ       16
    I3(9)     R0        -141
    I3(9)     R1        101
    I3(9)     R2        99
    I3(9)     R4        8
    I3(9)     R5        9
    I3(9)     R6        7
    I3(9)     R7        14
    I3(9)     R9        4
    I3(9)     R17       1
    I4(10)    OBJ       192
    I4(10)    R0        -35
    I4(10)    R1        -75
    I4(10)    R2        79
    I4(10)    R4        17
    I4(10)    R5        11
    I4(10)    R6        4
    I4(10)    R7        4
    I4(10)    R8        16
    I4(10)    R9        17
    I4(10)    R17       1
    I5(10)    OBJ       101
    I5(10)    R1        -105
    I5(10)    R2        23
    I5(10)    R3        8
    I5(10)    R4        6
    I5(10)    R5        3
    I5(10)    R6        15
    I5(10)    R7        12
    I5(10)    R8        19
    I5(10)    R9        11
    I5(10)    R17       1
    I6(6)     OBJ       -107
    I6(6)     R0        120
    I6(6)     R1        13
    I6(6)     R2        -186
    I6(6)     R5        5
    I6(6)     R8        18
    I6(6)     R17       1
    MARKER    'MARKER'                 'INTEND'
    C7(16)    OBJ       9
    C7(16)    R0        9
    C7(16)    R1        -9
    C7(16)    R2        2
    C7(16)    R3        5
    C7(16)    R4        16
    C7(16)    R6        12
    C7(16)    R7        12
    C7(16)    R8        19
    C7(16)    R9        18
    C7(16)    R10       14
    C7(16)    R11       13
    C7(16)    R12       17
    C7(16)    R13       11
    C7(16)    R14       5
    C7(16)    R15       7
    C7(16)    R16       1
    C8(17)    OBJ       -3
    C8(17)    R0        7
    C8(17)    R1        -9
    C8(17)    R2        2
    C8(17)    R3        2
    C8(17)    R4        5
    C8(17)    R5        5
    C8(17)    R6        9
    C8(17)    R7        5
    C8(17)    R8        5
    C8(17)    R9        2
    C8(17)    R10       8
    C8(17)    R11       6
    C8(17)    R12       18
    C8(17)    R13       12
    C8(17)    R14       8
    C8(17)    R15       8
    C8(17)    R16       10
    C9(13)    R0        9
    C9(13)    R1        -9
    C9(13)    R2        -8
    C9(13)    R3        8
    C9(13)    R4        11
    C9(13)    R5        19
    C9(13)    R6        17
    C9(13)    R7        10
    C9(13)    R8        10
    C9(13)    R9        11
    C9(13)    R10       8
    C9(13)    R11       17
    C9(13)    R14       3
    C10(15)   OBJ       4
    C10(15)   R0        9
    C10(15)   R1        4
    C10(15)   R2        6
    C10(15)   R3        4
    C10(15)   R4        12
    C10(15)   R5        17
    C10(15)   R6        1
    C10(15)   R7        3
    C10(15)   R8        18
    C10(15)   R9        17
    C10(15)   R11       4
    C10(15)   R12       2
    C10(15)   R13       15
    C10(15)   R14       10
    C10(15)   R16       -1
    C11(14)   OBJ       6
    C11(14)   R0        9
    C11(14)   R1        1
    C11(14)   R2        -9
    C11(14)   R3        1
    C11(14)   R5        7
    C11(14)   R6        12
    C11(14)   R7        15
    C11(14)   R8        3
    C11(14)   R9        16
    C11(14)   R10       1
    C11(14)   R11       14
    C11(14)   R12       13
    C11(14)   R13       11
    C11(14)   R16       14
    C12(15)   OBJ       -9
    C12(15)   R0        2
    C12(15)   R1        2
    C12(15)   R2        7
    C12(15)   R3        12
    C12(15)   R5        14
    C12(15)   R6        14
    C12(15)   R8        2
    C12(15)   R9        8
    C12(15)   R10       4
    C12(15)   R11       8
    C12(15)   R12       6
    C12(15)   R13       13
    C12(15)   R14       19
    C12(15)   R15       5
    C12(15)   R16       6
    C13(13)   OBJ       4
    C13(13)   R0        -6
    C13(13)   R1        -5
    C13(13)   R2        2
    C13(13)   R3        9
    C13(13)   R6        2
    C13(13)   R7        11
    C13(13)   R8        19
    C13(13)   R9        15
    C13(13)   R10       2
    C13(13)   R12       15
    C13(13)   R13       13
    C13(13)   R14       18
    C13(13)   R15       16
    C14(14)   OBJ       4
    C14(14)   R0        -3
    C14(14)   R1        2
    C14(14)   R2        8
    C14(14)   R4        19
    C14(14)   R6        6
    C14(14)   R7        14
    C14(14)   R8        10
    C14(14)   R10       16
    C14(14)   R11       11
    C14(14)   R12       13
    C14(14)   R13       2
    C14(14)   R14       3
    C14(14)   R15       15
    C14(14)   R16       19
    C15(1)    R3        1
    C16(1)    R4        1
    C17(1)    R5        1
    C18(1)    R6        1
    C19(1)    R7        1
    C20(1)    R8        1
    C21(1)    R9        1
    C22(1)    R10       1
    C23(1)    R11       1
    C24(1)    R12       1
    C25(1)    R13       1
    C26(1)    R14       1
    C27(1)    R15       1
    C28(1)    R16       1
    C29(1)    R17       1
RHS
    RHS1      R0        3.8114285714285717e+02
    RHS1      R1        -5.0857142857142918e+01
    RHS1      R2        3.6000000000000014e+01
    RHS1      R3        99
    RHS1      R4        80
    RHS1      R5        66
    RHS1      R6        80
    RHS1      R7        53
    RHS1      R8        53
    RHS1      R9        71
    RHS1      R10       85
    RHS1      R11       73
    RHS1      R12       66
    RHS1      R13       59
    RHS1      R14       54
    RHS1      R15       98
    RHS1      R16       69
    RHS1      R17       2
BOUNDS
 UP BND1      I0(9)     2
 UP BND1      I1(9)     2
 UP BND1      I2(9)     2
 UP BND1      I3(9)     2
 UP BND1      I4(10)    2
 UP BND1      I5(10)    2
 UP BND1      I6(6)     2
ENDATA
